# LAMMPS script for energy barrier calculation using NEB

# Initialize simulation
clear
atom_style      atomic
atom_modify     map array
boundary        p p p
atom_modify	sort 0 0.0

# Create atom positions
read_data ./data.000

# Set atom type and mass
mass 1 26.9815

# Define interatomic potential
pair_style eam/alloy
pair_coeff * * Al99.eam.alloy Al

timestep	0.001

fix 1 all neb 1.0 parallel ideal
run 1


# run NEB for 2000 steps or to force tolerance
timestep        0.001
min_style	fires
neb    0.01 0.01 2000 2000 100 final ./final.029

